FourierSAT_Github_AIJ/benchmarks/MAXSAT_benchmarks/random/1/abrame-habet/v140/s2v140c2500-3.cnf
c Generated after 1 tries
c Graph with 140 nodes and 1250 edges, Max edges:9730
c generated from an undirected graph
c to solve unweighted MaxCut
p cnf 140 2500
1 12 0
-1 -12 0
1 19 0
-1 -19 0
1 27 0
-1 -27 0
1 40 0
-1 -40 0
1 41 0
-1 -41 0
1 42 0
-1 -42 0
1 67 0
-1 -67 0
1 69 0
-1 -69 0
1 80 0
-1 -80 0
1 87 0
-1 -87 0
1 89 0
-1 -89 0
1 90 0
-1 -90 0
1 100 0
-1 -100 0
1 102 0
-1 -102 0
1 112 0
-1 -112 0
1 117 0
-1 -117 0
1 121 0
-1 -121 0
1 122 0
-1 -122 0
1 127 0
-1 -127 0
1 131 0
-1 -131 0
1 135 0
-1 -135 0
2 17 0
-2 -17 0
2 29 0
-2 -29 0
2 33 0
-2 -33 0
2 36 0
-2 -36 0
2 39 0
-2 -39 0
2 59 0
-2 -59 0
2 88 0
-2 -88 0
2 90 0
-2 -90 0
2 99 0
-2 -99 0
2 102 0
-2 -102 0
2 110 0
-2 -110 0
2 116 0
-2 -116 0
2 121 0
-2 -121 0
2 127 0
-2 -127 0
2 134 0
-2 -134 0
2 136 0
-2 -136 0
3 16 0
-3 -16 0
3 19 0
-3 -19 0
3 47 0
-3 -47 0
3 54 0
-3 -54 0
3 57 0
-3 -57 0
3 61 0
-3 -61 0
3 62 0
-3 -62 0
3 73 0
-3 -73 0
3 82 0
-3 -82 0
3 91 0
-3 -91 0
3 103 0
-3 -103 0
3 104 0
-3 -104 0
3 109 0
-3 -109 0
3 110 0
-3 -110 0
3 116 0
-3 -116 0
3 125 0
-3 -125 0
3 133 0
-3 -133 0
4 8 0
-4 -8 0
4 23 0
-4 -23 0
4 34 0
-4 -34 0
4 54 0
-4 -54 0
4 56 0
-4 -56 0
4 65 0
-4 -65 0
4 70 0
-4 -70 0
4 71 0
-4 -71 0
4 72 0
-4 -72 0
4 82 0
-4 -82 0
4 86 0
-4 -86 0
4 93 0
-4 -93 0
4 107 0
-4 -107 0
4 110 0
-4 -110 0
4 114 0
-4 -114 0
4 124 0
-4 -124 0
4 135 0
-4 -135 0
4 139 0
-4 -139 0
5 9 0
-5 -9 0
5 17 0
-5 -17 0
5 38 0
-5 -38 0
5 42 0
-5 -42 0
5 47 0
-5 -47 0
5 48 0
-5 -48 0
5 50 0
-5 -50 0
5 61 0
-5 -61 0
5 62 0
-5 -62 0
5 65 0
-5 -65 0
5 70 0
-5 -70 0
5 73 0
-5 -73 0
5 75 0
-5 -75 0
5 88 0
-5 -88 0
5 95 0
-5 -95 0
5 102 0
-5 -102 0
5 104 0
-5 -104 0
5 106 0
-5 -106 0
5 108 0
-5 -108 0
5 120 0
-5 -120 0
5 127 0
-5 -127 0
5 136 0
-5 -136 0
5 138 0
-5 -138 0
5 139 0
-5 -139 0
6 7 0
-6 -7 0
6 12 0
-6 -12 0
6 37 0
-6 -37 0
6 76 0
-6 -76 0
6 77 0
-6 -77 0
6 87 0
-6 -87 0
6 96 0
-6 -96 0
6 98 0
-6 -98 0
6 117 0
-6 -117 0
6 121 0
-6 -121 0
6 122 0
-6 -122 0
6 131 0
-6 -131 0
6 133 0
-6 -133 0
6 140 0
-6 -140 0
7 13 0
-7 -13 0
7 17 0
-7 -17 0
7 25 0
-7 -25 0
7 40 0
-7 -40 0
7 51 0
-7 -51 0
7 53 0
-7 -53 0
7 57 0
-7 -57 0
7 58 0
-7 -58 0
7 62 0
-7 -62 0
7 75 0
-7 -75 0
7 89 0
-7 -89 0
7 98 0
-7 -98 0
7 107 0
-7 -107 0
7 109 0
-7 -109 0
7 111 0
-7 -111 0
7 121 0
-7 -121 0
8 17 0
-8 -17 0
8 19 0
-8 -19 0
8 26 0
-8 -26 0
8 39 0
-8 -39 0
8 59 0
-8 -59 0
8 62 0
-8 -62 0
8 70 0
-8 -70 0
8 72 0
-8 -72 0
8 97 0
-8 -97 0
8 111 0
-8 -111 0
8 113 0
-8 -113 0
8 116 0
-8 -116 0
8 122 0
-8 -122 0
8 131 0
-8 -131 0
8 139 0
-8 -139 0
9 12 0
-9 -12 0
9 20 0
-9 -20 0
9 26 0
-9 -26 0
9 33 0
-9 -33 0
9 42 0
-9 -42 0
9 60 0
-9 -60 0
9 73 0
-9 -73 0
9 76 0
-9 -76 0
9 80 0
-9 -80 0
9 83 0
-9 -83 0
9 86 0
-9 -86 0
9 94 0
-9 -94 0
9 100 0
-9 -100 0
9 101 0
-9 -101 0
9 115 0
-9 -115 0
9 122 0
-9 -122 0
9 123 0
-9 -123 0
9 133 0
-9 -133 0
9 136 0
-9 -136 0
9 138 0
-9 -138 0
10 20 0
-10 -20 0
10 21 0
-10 -21 0
10 28 0
-10 -28 0
10 33 0
-10 -33 0
10 51 0
-10 -51 0
10 52 0
-10 -52 0
10 67 0
-10 -67 0
10 78 0
-10 -78 0
10 84 0
-10 -84 0
10 87 0
-10 -87 0
10 92 0
-10 -92 0
10 98 0
-10 -98 0
10 100 0
-10 -100 0
10 108 0
-10 -108 0
10 111 0
-10 -111 0
10 129 0
-10 -129 0
10 130 0
-10 -130 0
10 136 0
-10 -136 0
11 13 0
-11 -13 0
11 27 0
-11 -27 0
11 31 0
-11 -31 0
11 35 0
-11 -35 0
11 51 0
-11 -51 0
11 64 0
-11 -64 0
11 80 0
-11 -80 0
11 81 0
-11 -81 0
11 88 0
-11 -88 0
11 90 0
-11 -90 0
11 93 0
-11 -93 0
11 94 0
-11 -94 0
11 95 0
-11 -95 0
11 111 0
-11 -111 0
11 120 0
-11 -120 0
11 138 0
-11 -138 0
12 17 0
-12 -17 0
12 19 0
-12 -19 0
12 20 0
-12 -20 0
12 56 0
-12 -56 0
12 58 0
-12 -58 0
12 74 0
-12 -74 0
12 77 0
-12 -77 0
12 84 0
-12 -84 0
12 94 0
-12 -94 0
12 121 0
-12 -121 0
13 14 0
-13 -14 0
13 17 0
-13 -17 0
13 24 0
-13 -24 0
13 25 0
-13 -25 0
13 26 0
-13 -26 0
13 42 0
-13 -42 0
13 47 0
-13 -47 0
13 52 0
-13 -52 0
13 63 0
-13 -63 0
13 75 0
-13 -75 0
13 98 0
-13 -98 0
13 102 0
-13 -102 0
13 106 0
-13 -106 0
13 108 0
-13 -108 0
13 112 0
-13 -112 0
13 123 0
-13 -123 0
14 16 0
-14 -16 0
14 22 0
-14 -22 0
14 31 0
-14 -31 0
14 39 0
-14 -39 0
14 46 0
-14 -46 0
14 49 0
-14 -49 0
14 56 0
-14 -56 0
14 69 0
-14 -69 0
14 76 0
-14 -76 0
14 88 0
-14 -88 0
14 96 0
-14 -96 0
14 98 0
-14 -98 0
14 106 0
-14 -106 0
14 108 0
-14 -108 0
14 118 0
-14 -118 0
14 121 0
-14 -121 0
14 134 0
-14 -134 0
14 135 0
-14 -135 0
14 137 0
-14 -137 0
14 139 0
-14 -139 0
15 34 0
-15 -34 0
15 35 0
-15 -35 0
15 60 0
-15 -60 0
15 69 0
-15 -69 0
15 70 0
-15 -70 0
15 71 0
-15 -71 0
15 75 0
-15 -75 0
15 76 0
-15 -76 0
15 90 0
-15 -90 0
15 100 0
-15 -100 0
15 111 0
-15 -111 0
15 112 0
-15 -112 0
15 113 0
-15 -113 0
15 133 0
-15 -133 0
16 34 0
-16 -34 0
16 51 0
-16 -51 0
16 55 0
-16 -55 0
16 59 0
-16 -59 0
16 66 0
-16 -66 0
16 69 0
-16 -69 0
16 72 0
-16 -72 0
16 76 0
-16 -76 0
16 85 0
-16 -85 0
16 98 0
-16 -98 0
16 105 0
-16 -105 0
16 109 0
-16 -109 0
16 131 0
-16 -131 0
16 132 0
-16 -132 0
16 135 0
-16 -135 0
16 136 0
-16 -136 0
16 138 0
-16 -138 0
17 18 0
-17 -18 0
17 20 0
-17 -20 0
17 22 0
-17 -22 0
17 23 0
-17 -23 0
17 30 0
-17 -30 0
17 31 0
-17 -31 0
17 32 0
-17 -32 0
17 39 0
-17 -39 0
17 45 0
-17 -45 0
17 69 0
-17 -69 0
17 79 0
-17 -79 0
17 86 0
-17 -86 0
17 91 0
-17 -91 0
17 93 0
-17 -93 0
17 99 0
-17 -99 0
17 100 0
-17 -100 0
17 103 0
-17 -103 0
17 105 0
-17 -105 0
17 108 0
-17 -108 0
17 109 0
-17 -109 0
17 119 0
-17 -119 0
17 127 0
-17 -127 0
17 129 0
-17 -129 0
18 40 0
-18 -40 0
18 42 0
-18 -42 0
18 52 0
-18 -52 0
18 56 0
-18 -56 0
18 57 0
-18 -57 0
18 68 0
-18 -68 0
18 88 0
-18 -88 0
18 89 0
-18 -89 0
18 90 0
-18 -90 0
18 92 0
-18 -92 0
18 102 0
-18 -102 0
18 110 0
-18 -110 0
18 130 0
-18 -130 0
18 133 0
-18 -133 0
19 21 0
-19 -21 0
19 23 0
-19 -23 0
19 34 0
-19 -34 0
19 36 0
-19 -36 0
19 42 0
-19 -42 0
19 43 0
-19 -43 0
19 55 0
-19 -55 0
19 67 0
-19 -67 0
19 74 0
-19 -74 0
19 82 0
-19 -82 0
19 85 0
-19 -85 0
19 99 0
-19 -99 0
19 101 0
-19 -101 0
19 108 0
-19 -108 0
19 115 0
-19 -115 0
19 121 0
-19 -121 0
19 133 0
-19 -133 0
19 138 0
-19 -138 0
19 139 0
-19 -139 0
19 140 0
-19 -140 0
20 33 0
-20 -33 0
20 55 0
-20 -55 0
20 60 0
-20 -60 0
20 67 0
-20 -67 0
20 74 0
-20 -74 0
20 83 0
-20 -83 0
20 96 0
-20 -96 0
20 97 0
-20 -97 0
20 103 0
-20 -103 0
20 106 0
-20 -106 0
20 109 0
-20 -109 0
20 123 0
-20 -123 0
21 24 0
-21 -24 0
21 29 0
-21 -29 0
21 31 0
-21 -31 0
21 47 0
-21 -47 0
21 49 0
-21 -49 0
21 55 0
-21 -55 0
21 57 0
-21 -57 0
21 66 0
-21 -66 0
21 68 0
-21 -68 0
21 100 0
-21 -100 0
22 38 0
-22 -38 0
22 39 0
-22 -39 0
22 42 0
-22 -42 0
22 48 0
-22 -48 0
22 72 0
-22 -72 0
22 79 0
-22 -79 0
22 88 0
-22 -88 0
22 89 0
-22 -89 0
22 97 0
-22 -97 0
22 103 0
-22 -103 0
22 138 0
-22 -138 0
23 49 0
-23 -49 0
23 51 0
-23 -51 0
23 56 0
-23 -56 0
23 63 0
-23 -63 0
23 78 0
-23 -78 0
23 79 0
-23 -79 0
23 81 0
-23 -81 0
23 95 0
-23 -95 0
23 117 0
-23 -117 0
23 132 0
-23 -132 0
23 135 0
-23 -135 0
23 139 0
-23 -139 0
24 31 0
-24 -31 0
24 35 0
-24 -35 0
24 43 0
-24 -43 0
24 46 0
-24 -46 0
24 48 0
-24 -48 0
24 51 0
-24 -51 0
24 62 0
-24 -62 0
24 76 0
-24 -76 0
24 91 0
-24 -91 0
24 103 0
-24 -103 0
24 105 0
-24 -105 0
24 111 0
-24 -111 0
24 115 0
-24 -115 0
25 26 0
-25 -26 0
25 30 0
-25 -30 0
25 35 0
-25 -35 0
25 50 0
-25 -50 0
25 51 0
-25 -51 0
25 68 0
-25 -68 0
25 74 0
-25 -74 0
25 84 0
-25 -84 0
25 91 0
-25 -91 0
25 97 0
-25 -97 0
25 98 0
-25 -98 0
25 104 0
-25 -104 0
25 108 0
-25 -108 0
25 111 0
-25 -111 0
25 112 0
-25 -112 0
25 118 0
-25 -118 0
25 120 0
-25 -120 0
25 126 0
-25 -126 0
25 136 0
-25 -136 0
26 29 0
-26 -29 0
26 31 0
-26 -31 0
26 34 0
-26 -34 0
26 37 0
-26 -37 0
26 47 0
-26 -47 0
26 50 0
-26 -50 0
26 55 0
-26 -55 0
26 71 0
-26 -71 0
26 74 0
-26 -74 0
26 81 0
-26 -81 0
26 100 0
-26 -100 0
26 107 0
-26 -107 0
26 111 0
-26 -111 0
26 127 0
-26 -127 0
27 28 0
-27 -28 0
27 36 0
-27 -36 0
27 38 0
-27 -38 0
27 39 0
-27 -39 0
27 41 0
-27 -41 0
27 48 0
-27 -48 0
27 50 0
-27 -50 0
27 55 0
-27 -55 0
27 85 0
-27 -85 0
27 90 0
-27 -90 0
27 103 0
-27 -103 0
27 106 0
-27 -106 0
27 122 0
-27 -122 0
27 136 0
-27 -136 0
28 33 0
-28 -33 0
28 37 0
-28 -37 0
28 39 0
-28 -39 0
28 62 0
-28 -62 0
28 66 0
-28 -66 0
28 81 0
-28 -81 0
28 85 0
-28 -85 0
28 86 0
-28 -86 0
28 90 0
-28 -90 0
28 98 0
-28 -98 0
28 103 0
-28 -103 0
28 123 0
-28 -123 0
28 128 0
-28 -128 0
28 134 0
-28 -134 0
29 40 0
-29 -40 0
29 43 0
-29 -43 0
29 55 0
-29 -55 0
29 66 0
-29 -66 0
29 68 0
-29 -68 0
29 86 0
-29 -86 0
29 87 0
-29 -87 0
29 111 0
-29 -111 0
29 115 0
-29 -115 0
29 116 0
-29 -116 0
29 117 0
-29 -117 0
30 41 0
-30 -41 0
30 43 0
-30 -43 0
30 58 0
-30 -58 0
30 61 0
-30 -61 0
30 62 0
-30 -62 0
30 67 0
-30 -67 0
30 69 0
-30 -69 0
30 80 0
-30 -80 0
30 91 0
-30 -91 0
30 99 0
-30 -99 0
30 101 0
-30 -101 0
30 105 0
-30 -105 0
30 106 0
-30 -106 0
30 108 0
-30 -108 0
30 114 0
-30 -114 0
30 138 0
-30 -138 0
30 139 0
-30 -139 0
31 44 0
-31 -44 0
31 45 0
-31 -45 0
31 50 0
-31 -50 0
31 53 0
-31 -53 0
31 60 0
-31 -60 0
31 80 0
-31 -80 0
31 82 0
-31 -82 0
31 88 0
-31 -88 0
31 89 0
-31 -89 0
31 115 0
-31 -115 0
31 133 0
-31 -133 0
31 140 0
-31 -140 0
32 47 0
-32 -47 0
32 63 0
-32 -63 0
32 81 0
-32 -81 0
32 94 0
-32 -94 0
32 100 0
-32 -100 0
32 105 0
-32 -105 0
32 108 0
-32 -108 0
32 115 0
-32 -115 0
32 118 0
-32 -118 0
32 119 0
-32 -119 0
32 129 0
-32 -129 0
32 132 0
-32 -132 0
32 137 0
-32 -137 0
33 60 0
-33 -60 0
33 61 0
-33 -61 0
33 62 0
-33 -62 0
33 67 0
-33 -67 0
33 71 0
-33 -71 0
33 83 0
-33 -83 0
33 84 0
-33 -84 0
33 97 0
-33 -97 0
33 99 0
-33 -99 0
33 102 0
-33 -102 0
33 113 0
-33 -113 0
33 115 0
-33 -115 0
33 126 0
-33 -126 0
33 129 0
-33 -129 0
33 130 0
-33 -130 0
33 138 0
-33 -138 0
34 40 0
-34 -40 0
34 47 0
-34 -47 0
34 49 0
-34 -49 0
34 51 0
-34 -51 0
34 56 0
-34 -56 0
34 60 0
-34 -60 0
34 64 0
-34 -64 0
34 65 0
-34 -65 0
34 79 0
-34 -79 0
34 82 0
-34 -82 0
34 84 0
-34 -84 0
34 99 0
-34 -99 0
34 100 0
-34 -100 0
34 103 0
-34 -103 0
34 108 0
-34 -108 0
34 109 0
-34 -109 0
34 112 0
-34 -112 0
34 119 0
-34 -119 0
34 120 0
-34 -120 0
34 121 0
-34 -121 0
34 131 0
-34 -131 0
34 132 0
-34 -132 0
34 133 0
-34 -133 0
34 134 0
-34 -134 0
34 139 0
-34 -139 0
35 37 0
-35 -37 0
35 45 0
-35 -45 0
35 49 0
-35 -49 0
35 52 0
-35 -52 0
35 54 0
-35 -54 0
35 60 0
-35 -60 0
35 63 0
-35 -63 0
35 91 0
-35 -91 0
35 92 0
-35 -92 0
35 111 0
-35 -111 0
35 113 0
-35 -113 0
35 114 0
-35 -114 0
35 116 0
-35 -116 0
35 117 0
-35 -117 0
35 121 0
-35 -121 0
35 123 0
-35 -123 0
35 129 0
-35 -129 0
35 130 0
-35 -130 0
35 135 0
-35 -135 0
36 49 0
-36 -49 0
36 69 0
-36 -69 0
36 81 0
-36 -81 0
36 114 0
-36 -114 0
36 125 0
-36 -125 0
36 131 0
-36 -131 0
37 48 0
-37 -48 0
37 58 0
-37 -58 0
37 72 0
-37 -72 0
37 79 0
-37 -79 0
37 83 0
-37 -83 0
37 90 0
-37 -90 0
37 91 0
-37 -91 0
37 97 0
-37 -97 0
37 99 0
-37 -99 0
37 100 0
-37 -100 0
37 110 0
-37 -110 0
37 119 0
-37 -119 0
37 131 0
-37 -131 0
37 135 0
-37 -135 0
38 47 0
-38 -47 0
38 58 0
-38 -58 0
38 67 0
-38 -67 0
38 70 0
-38 -70 0
38 79 0
-38 -79 0
38 83 0
-38 -83 0
38 96 0
-38 -96 0
38 98 0
-38 -98 0
38 121 0
-38 -121 0
38 123 0
-38 -123 0
38 131 0
-38 -131 0
38 135 0
-38 -135 0
39 42 0
-39 -42 0
39 59 0
-39 -59 0
39 62 0
-39 -62 0
39 66 0
-39 -66 0
39 69 0
-39 -69 0
39 79 0
-39 -79 0
39 82 0
-39 -82 0
39 85 0
-39 -85 0
39 89 0
-39 -89 0
39 93 0
-39 -93 0
39 97 0
-39 -97 0
39 100 0
-39 -100 0
39 108 0
-39 -108 0
39 112 0
-39 -112 0
39 113 0
-39 -113 0
39 115 0
-39 -115 0
39 126 0
-39 -126 0
40 46 0
-40 -46 0
40 48 0
-40 -48 0
40 51 0
-40 -51 0
40 61 0
-40 -61 0
40 89 0
-40 -89 0
40 102 0
-40 -102 0
40 107 0
-40 -107 0
40 116 0
-40 -116 0
40 124 0
-40 -124 0
40 127 0
-40 -127 0
40 129 0
-40 -129 0
40 131 0
-40 -131 0
40 136 0
-40 -136 0
41 46 0
-41 -46 0
41 48 0
-41 -48 0
41 58 0
-41 -58 0
41 65 0
-41 -65 0
41 75 0
-41 -75 0
41 89 0
-41 -89 0
41 96 0
-41 -96 0
41 114 0
-41 -114 0
41 123 0
-41 -123 0
41 126 0
-41 -126 0
42 45 0
-42 -45 0
42 47 0
-42 -47 0
42 48 0
-42 -48 0
42 51 0
-42 -51 0
42 56 0
-42 -56 0
42 59 0
-42 -59 0
42 71 0
-42 -71 0
42 80 0
-42 -80 0
42 83 0
-42 -83 0
42 86 0
-42 -86 0
42 96 0
-42 -96 0
42 101 0
-42 -101 0
42 104 0
-42 -104 0
42 105 0
-42 -105 0
42 119 0
-42 -119 0
42 134 0
-42 -134 0
42 137 0
-42 -137 0
43 69 0
-43 -69 0
43 72 0
-43 -72 0
43 76 0
-43 -76 0
43 82 0
-43 -82 0
43 83 0
-43 -83 0
43 91 0
-43 -91 0
43 99 0
-43 -99 0
43 106 0
-43 -106 0
43 110 0
-43 -110 0
43 118 0
-43 -118 0
43 124 0
-43 -124 0
43 130 0
-43 -130 0
43 138 0
-43 -138 0
43 139 0
-43 -139 0
44 45 0
-44 -45 0
44 48 0
-44 -48 0
44 57 0
-44 -57 0
44 59 0
-44 -59 0
44 60 0
-44 -60 0
44 75 0
-44 -75 0
44 84 0
-44 -84 0
44 92 0
-44 -92 0
44 105 0
-44 -105 0
44 108 0
-44 -108 0
44 115 0
-44 -115 0
44 119 0
-44 -119 0
44 126 0
-44 -126 0
44 129 0
-44 -129 0
45 52 0
-45 -52 0
45 78 0
-45 -78 0
45 100 0
-45 -100 0
45 105 0
-45 -105 0
45 110 0
-45 -110 0
45 121 0
-45 -121 0
45 129 0
-45 -129 0
45 132 0
-45 -132 0
45 134 0
-45 -134 0
46 54 0
-46 -54 0
46 55 0
-46 -55 0
46 59 0
-46 -59 0
46 67 0
-46 -67 0
46 82 0
-46 -82 0
46 108 0
-46 -108 0
46 132 0
-46 -132 0
46 137 0
-46 -137 0
47 52 0
-47 -52 0
47 54 0
-47 -54 0
47 72 0
-47 -72 0
47 83 0
-47 -83 0
47 84 0
-47 -84 0
47 89 0
-47 -89 0
47 101 0
-47 -101 0
47 107 0
-47 -107 0
47 114 0
-47 -114 0
47 116 0
-47 -116 0
47 128 0
-47 -128 0
47 129 0
-47 -129 0
47 135 0
-47 -135 0
47 137 0
-47 -137 0
48 62 0
-48 -62 0
48 73 0
-48 -73 0
48 109 0
-48 -109 0
48 115 0
-48 -115 0
48 116 0
-48 -116 0
48 125 0
-48 -125 0
48 134 0
-48 -134 0
48 137 0
-48 -137 0
49 61 0
-49 -61 0
49 62 0
-49 -62 0
49 77 0
-49 -77 0
49 93 0
-49 -93 0
49 97 0
-49 -97 0
49 102 0
-49 -102 0
49 108 0
-49 -108 0
50 51 0
-50 -51 0
50 56 0
-50 -56 0
50 59 0
-50 -59 0
50 66 0
-50 -66 0
50 85 0
-50 -85 0
50 92 0
-50 -92 0
50 94 0
-50 -94 0
50 104 0
-50 -104 0
50 107 0
-50 -107 0
50 109 0
-50 -109 0
50 114 0
-50 -114 0
51 54 0
-51 -54 0
51 63 0
-51 -63 0
51 86 0
-51 -86 0
51 91 0
-51 -91 0
51 93 0
-51 -93 0
51 96 0
-51 -96 0
51 120 0
-51 -120 0
51 129 0
-51 -129 0
51 138 0
-51 -138 0
51 140 0
-51 -140 0
52 71 0
-52 -71 0
52 81 0
-52 -81 0
52 86 0
-52 -86 0
52 90 0
-52 -90 0
52 95 0
-52 -95 0
52 96 0
-52 -96 0
52 97 0
-52 -97 0
52 98 0
-52 -98 0
52 106 0
-52 -106 0
52 115 0
-52 -115 0
52 118 0
-52 -118 0
52 130 0
-52 -130 0
53 59 0
-53 -59 0
53 62 0
-53 -62 0
53 68 0
-53 -68 0
53 84 0
-53 -84 0
53 96 0
-53 -96 0
53 98 0
-53 -98 0
53 102 0
-53 -102 0
53 112 0
-53 -112 0
53 116 0
-53 -116 0
54 55 0
-54 -55 0
54 62 0
-54 -62 0
54 63 0
-54 -63 0
54 68 0
-54 -68 0
54 74 0
-54 -74 0
54 87 0
-54 -87 0
54 89 0
-54 -89 0
54 94 0
-54 -94 0
54 98 0
-54 -98 0
54 99 0
-54 -99 0
54 100 0
-54 -100 0
54 115 0
-54 -115 0
54 116 0
-54 -116 0
54 120 0
-54 -120 0
54 121 0
-54 -121 0
54 122 0
-54 -122 0
54 134 0
-54 -134 0
54 135 0
-54 -135 0
55 58 0
-55 -58 0
55 61 0
-55 -61 0
55 78 0
-55 -78 0
55 81 0
-55 -81 0
55 82 0
-55 -82 0
55 91 0
-55 -91 0
55 102 0
-55 -102 0
55 103 0
-55 -103 0
55 109 0
-55 -109 0
55 127 0
-55 -127 0
55 132 0
-55 -132 0
55 137 0
-55 -137 0
56 59 0
-56 -59 0
56 69 0
-56 -69 0
56 70 0
-56 -70 0
56 98 0
-56 -98 0
56 117 0
-56 -117 0
56 131 0
-56 -131 0
57 64 0
-57 -64 0
57 66 0
-57 -66 0
57 68 0
-57 -68 0
57 84 0
-57 -84 0
57 87 0
-57 -87 0
57 88 0
-57 -88 0
57 93 0
-57 -93 0
57 95 0
-57 -95 0
57 107 0
-57 -107 0
57 113 0
-57 -113 0
57 116 0
-57 -116 0
57 131 0
-57 -131 0
57 136 0
-57 -136 0
58 61 0
-58 -61 0
58 69 0
-58 -69 0
58 73 0
-58 -73 0
58 86 0
-58 -86 0
58 98 0
-58 -98 0
58 99 0
-58 -99 0
58 119 0
-58 -119 0
58 130 0
-58 -130 0
58 133 0
-58 -133 0
58 140 0
-58 -140 0
59 69 0
-59 -69 0
59 77 0
-59 -77 0
59 79 0
-59 -79 0
59 83 0
-59 -83 0
59 89 0
-59 -89 0
59 92 0
-59 -92 0
59 98 0
-59 -98 0
59 140 0
-59 -140 0
60 61 0
-60 -61 0
60 65 0
-60 -65 0
60 69 0
-60 -69 0
60 71 0
-60 -71 0
60 72 0
-60 -72 0
60 74 0
-60 -74 0
60 75 0
-60 -75 0
60 79 0
-60 -79 0
60 83 0
-60 -83 0
60 88 0
-60 -88 0
60 89 0
-60 -89 0
60 91 0
-60 -91 0
60 97 0
-60 -97 0
60 107 0
-60 -107 0
60 108 0
-60 -108 0
60 112 0
-60 -112 0
60 113 0
-60 -113 0
60 117 0
-60 -117 0
60 119 0
-60 -119 0
60 131 0
-60 -131 0
60 132 0
-60 -132 0
60 138 0
-60 -138 0
61 74 0
-61 -74 0
61 76 0
-61 -76 0
61 85 0
-61 -85 0
61 86 0
-61 -86 0
61 122 0
-61 -122 0
61 128 0
-61 -128 0
61 130 0
-61 -130 0
62 64 0
-62 -64 0
62 80 0
-62 -80 0
62 84 0
-62 -84 0
62 99 0
-62 -99 0
62 102 0
-62 -102 0
62 121 0
-62 -121 0
62 125 0
-62 -125 0
62 131 0
-62 -131 0
62 132 0
-62 -132 0
63 76 0
-63 -76 0
63 84 0
-63 -84 0
63 115 0
-63 -115 0
63 121 0
-63 -121 0
63 123 0
-63 -123 0
63 127 0
-63 -127 0
63 134 0
-63 -134 0
63 139 0
-63 -139 0
64 66 0
-64 -66 0
64 69 0
-64 -69 0
64 74 0
-64 -74 0
64 76 0
-64 -76 0
64 82 0
-64 -82 0
64 125 0
-64 -125 0
64 127 0
-64 -127 0
64 136 0
-64 -136 0
64 137 0
-64 -137 0
65 78 0
-65 -78 0
65 81 0
-65 -81 0
65 84 0
-65 -84 0
65 87 0
-65 -87 0
65 103 0
-65 -103 0
65 104 0
-65 -104 0
65 116 0
-65 -116 0
65 120 0
-65 -120 0
65 123 0
-65 -123 0
66 74 0
-66 -74 0
66 88 0
-66 -88 0
66 101 0
-66 -101 0
66 126 0
-66 -126 0
66 127 0
-66 -127 0
66 140 0
-66 -140 0
67 71 0
-67 -71 0
67 83 0
-67 -83 0
67 88 0
-67 -88 0
67 91 0
-67 -91 0
67 95 0
-67 -95 0
67 100 0
-67 -100 0
67 112 0
-67 -112 0
67 114 0
-67 -114 0
67 124 0
-67 -124 0
68 76 0
-68 -76 0
68 80 0
-68 -80 0
68 91 0
-68 -91 0
68 93 0
-68 -93 0
68 107 0
-68 -107 0
68 130 0
-68 -130 0
68 135 0
-68 -135 0
69 70 0
-69 -70 0
69 72 0
-69 -72 0
69 74 0
-69 -74 0
69 102 0
-69 -102 0
69 112 0
-69 -112 0
69 121 0
-69 -121 0
69 133 0
-69 -133 0
69 136 0
-69 -136 0
70 72 0
-70 -72 0
70 79 0
-70 -79 0
70 86 0
-70 -86 0
70 95 0
-70 -95 0
70 100 0
-70 -100 0
70 104 0
-70 -104 0
70 128 0
-70 -128 0
70 134 0
-70 -134 0
70 136 0
-70 -136 0
70 139 0
-70 -139 0
70 140 0
-70 -140 0
71 72 0
-71 -72 0
71 77 0
-71 -77 0
71 93 0
-71 -93 0
71 109 0
-71 -109 0
71 133 0
-71 -133 0
71 136 0
-71 -136 0
71 137 0
-71 -137 0
71 140 0
-71 -140 0
72 75 0
-72 -75 0
72 79 0
-72 -79 0
72 83 0
-72 -83 0
72 104 0
-72 -104 0
72 106 0
-72 -106 0
72 108 0
-72 -108 0
72 110 0
-72 -110 0
72 130 0
-72 -130 0
72 134 0
-72 -134 0
72 140 0
-72 -140 0
73 93 0
-73 -93 0
73 104 0
-73 -104 0
73 107 0
-73 -107 0
73 108 0
-73 -108 0
73 127 0
-73 -127 0
73 131 0
-73 -131 0
74 75 0
-74 -75 0
74 76 0
-74 -76 0
74 84 0
-74 -84 0
74 87 0
-74 -87 0
74 96 0
-74 -96 0
74 100 0
-74 -100 0
74 102 0
-74 -102 0
74 108 0
-74 -108 0
74 109 0
-74 -109 0
74 111 0
-74 -111 0
74 119 0
-74 -119 0
74 126 0
-74 -126 0
74 129 0
-74 -129 0
75 89 0
-75 -89 0
75 90 0
-75 -90 0
75 92 0
-75 -92 0
75 101 0
-75 -101 0
75 107 0
-75 -107 0
75 110 0
-75 -110 0
75 116 0
-75 -116 0
75 119 0
-75 -119 0
75 133 0
-75 -133 0
76 83 0
-76 -83 0
76 85 0
-76 -85 0
76 86 0
-76 -86 0
76 101 0
-76 -101 0
76 107 0
-76 -107 0
76 109 0
-76 -109 0
76 120 0
-76 -120 0
76 121 0
-76 -121 0
76 122 0
-76 -122 0
76 124 0
-76 -124 0
76 130 0
-76 -130 0
77 80 0
-77 -80 0
77 83 0
-77 -83 0
77 99 0
-77 -99 0
77 102 0
-77 -102 0
77 116 0
-77 -116 0
77 123 0
-77 -123 0
77 127 0
-77 -127 0
77 128 0
-77 -128 0
77 132 0
-77 -132 0
77 133 0
-77 -133 0
78 79 0
-78 -79 0
78 98 0
-78 -98 0
78 118 0
-78 -118 0
78 127 0
-78 -127 0
78 137 0
-78 -137 0
79 88 0
-79 -88 0
79 90 0
-79 -90 0
79 98 0
-79 -98 0
79 99 0
-79 -99 0
79 111 0
-79 -111 0
79 120 0
-79 -120 0
79 122 0
-79 -122 0
79 136 0
-79 -136 0
79 138 0
-79 -138 0
80 83 0
-80 -83 0
80 86 0
-80 -86 0
80 88 0
-80 -88 0
80 119 0
-80 -119 0
80 127 0
-80 -127 0
81 89 0
-81 -89 0
81 103 0
-81 -103 0
81 125 0
-81 -125 0
81 135 0
-81 -135 0
81 136 0
-81 -136 0
82 84 0
-82 -84 0
82 123 0
-82 -123 0
82 132 0
-82 -132 0
82 135 0
-82 -135 0
82 138 0
-82 -138 0
83 89 0
-83 -89 0
83 91 0
-83 -91 0
83 92 0
-83 -92 0
83 103 0
-83 -103 0
83 114 0
-83 -114 0
83 132 0
-83 -132 0
83 135 0
-83 -135 0
83 140 0
-83 -140 0
84 90 0
-84 -90 0
84 95 0
-84 -95 0
84 106 0
-84 -106 0
84 109 0
-84 -109 0
84 112 0
-84 -112 0
84 118 0
-84 -118 0
84 129 0
-84 -129 0
85 100 0
-85 -100 0
85 114 0
-85 -114 0
85 116 0
-85 -116 0
85 117 0
-85 -117 0
85 120 0
-85 -120 0
85 127 0
-85 -127 0
86 94 0
-86 -94 0
86 115 0
-86 -115 0
86 136 0
-86 -136 0
87 114 0
-87 -114 0
87 118 0
-87 -118 0
87 119 0
-87 -119 0
87 124 0
-87 -124 0
87 128 0
-87 -128 0
87 130 0
-87 -130 0
87 132 0
-87 -132 0
87 137 0
-87 -137 0
87 140 0
-87 -140 0
88 93 0
-88 -93 0
88 111 0
-88 -111 0
88 113 0
-88 -113 0
88 129 0
-88 -129 0
88 134 0
-88 -134 0
88 136 0
-88 -136 0
88 139 0
-88 -139 0
88 140 0
-88 -140 0
89 91 0
-89 -91 0
89 93 0
-89 -93 0
89 110 0
-89 -110 0
89 117 0
-89 -117 0
89 124 0
-89 -124 0
90 108 0
-90 -108 0
90 113 0
-90 -113 0
90 118 0
-90 -118 0
90 125 0
-90 -125 0
90 130 0
-90 -130 0
90 132 0
-90 -132 0
91 95 0
-91 -95 0
91 103 0
-91 -103 0
91 112 0
-91 -112 0
91 113 0
-91 -113 0
91 117 0
-91 -117 0
91 119 0
-91 -119 0
91 122 0
-91 -122 0
91 129 0
-91 -129 0
91 135 0
-91 -135 0
91 138 0
-91 -138 0
92 93 0
-92 -93 0
92 96 0
-92 -96 0
92 103 0
-92 -103 0
92 105 0
-92 -105 0
92 111 0
-92 -111 0
92 114 0
-92 -114 0
92 116 0
-92 -116 0
92 119 0
-92 -119 0
92 137 0
-92 -137 0
92 139 0
-92 -139 0
93 99 0
-93 -99 0
93 111 0
-93 -111 0
93 118 0
-93 -118 0
93 135 0
-93 -135 0
93 139 0
-93 -139 0
94 98 0
-94 -98 0
94 104 0
-94 -104 0
94 108 0
-94 -108 0
94 109 0
-94 -109 0
94 115 0
-94 -115 0
94 117 0
-94 -117 0
94 129 0
-94 -129 0
94 135 0
-94 -135 0
95 97 0
-95 -97 0
95 98 0
-95 -98 0
95 104 0
-95 -104 0
95 106 0
-95 -106 0
95 117 0
-95 -117 0
95 125 0
-95 -125 0
95 127 0
-95 -127 0
95 137 0
-95 -137 0
96 99 0
-96 -99 0
96 102 0
-96 -102 0
96 131 0
-96 -131 0
96 135 0
-96 -135 0
96 136 0
-96 -136 0
96 138 0
-96 -138 0
97 99 0
-97 -99 0
97 108 0
-97 -108 0
97 124 0
-97 -124 0
97 133 0
-97 -133 0
97 137 0
-97 -137 0
97 139 0
-97 -139 0
98 111 0
-98 -111 0
98 116 0
-98 -116 0
98 124 0
-98 -124 0
98 125 0
-98 -125 0
98 126 0
-98 -126 0
98 127 0
-98 -127 0
98 129 0
-98 -129 0
99 100 0
-99 -100 0
99 102 0
-99 -102 0
99 120 0
-99 -120 0
99 127 0
-99 -127 0
99 133 0
-99 -133 0
100 109 0
-100 -109 0
100 110 0
-100 -110 0
100 121 0
-100 -121 0
100 125 0
-100 -125 0
100 132 0
-100 -132 0
100 133 0
-100 -133 0
100 134 0
-100 -134 0
101 113 0
-101 -113 0
101 115 0
-101 -115 0
101 118 0
-101 -118 0
101 119 0
-101 -119 0
101 136 0
-101 -136 0
101 137 0
-101 -137 0
102 117 0
-102 -117 0
102 133 0
-102 -133 0
102 134 0
-102 -134 0
102 138 0
-102 -138 0
103 109 0
-103 -109 0
103 126 0
-103 -126 0
103 127 0
-103 -127 0
103 132 0
-103 -132 0
103 133 0
-103 -133 0
104 105 0
-104 -105 0
104 114 0
-104 -114 0
104 117 0
-104 -117 0
105 123 0
-105 -123 0
105 124 0
-105 -124 0
105 128 0
-105 -128 0
106 107 0
-106 -107 0
106 114 0
-106 -114 0
106 127 0
-106 -127 0
106 129 0
-106 -129 0
106 135 0
-106 -135 0
107 119 0
-107 -119 0
107 122 0
-107 -122 0
107 127 0
-107 -127 0
107 139 0
-107 -139 0
108 116 0
-108 -116 0
108 128 0
-108 -128 0
108 131 0
-108 -131 0
108 133 0
-108 -133 0
108 134 0
-108 -134 0
109 111 0
-109 -111 0
109 112 0
-109 -112 0
109 118 0
-109 -118 0
109 119 0
-109 -119 0
109 125 0
-109 -125 0
109 128 0
-109 -128 0
109 132 0
-109 -132 0
109 136 0
-109 -136 0
110 115 0
-110 -115 0
110 123 0
-110 -123 0
110 127 0
-110 -127 0
111 125 0
-111 -125 0
111 133 0
-111 -133 0
112 113 0
-112 -113 0
112 117 0
-112 -117 0
112 119 0
-112 -119 0
112 129 0
-112 -129 0
112 131 0
-112 -131 0
112 135 0
-112 -135 0
113 125 0
-113 -125 0
114 120 0
-114 -120 0
114 121 0
-114 -121 0
115 132 0
-115 -132 0
116 125 0
-116 -125 0
116 127 0
-116 -127 0
116 131 0
-116 -131 0
118 131 0
-118 -131 0
119 127 0
-119 -127 0
119 134 0
-119 -134 0
119 135 0
-119 -135 0
119 137 0
-119 -137 0
119 140 0
-119 -140 0
120 125 0
-120 -125 0
120 127 0
-120 -127 0
120 129 0
-120 -129 0
120 133 0
-120 -133 0
120 134 0
-120 -134 0
121 126 0
-121 -126 0
121 130 0
-121 -130 0
121 133 0
-121 -133 0
123 126 0
-123 -126 0
123 130 0
-123 -130 0
123 132 0
-123 -132 0
124 128 0
-124 -128 0
124 133 0
-124 -133 0
124 138 0
-124 -138 0
125 133 0
-125 -133 0
125 137 0
-125 -137 0
125 139 0
-125 -139 0
128 139 0
-128 -139 0
129 131 0
-129 -131 0
129 132 0
-129 -132 0
130 139 0
-130 -139 0
132 133 0
-132 -133 0
133 137 0
-133 -137 0
138 139 0
-138 -139 0
138 140 0
-138 -140 0
