FourierSAT_Github_AIJ/res/fs_1core/s2v140c2500-3.cnf.txt
o 451
o 450
